p cnf 16 150
-1 -9 0
-1 -10 0
-2 -9 0
-2 -10 0
-1 -17 0
-1 -18 0
-2 -17 0
-2 -18 0
-1 -33 0
-1 -34 0
-2 -33 0
-2 -34 0
-1 -41 0
-1 -42 0
-2 -41 0
-2 -42 0
-1 -57 0
-1 -58 0
-2 -57 0
-2 -58 0
-9 -17 0
-9 -18 0
-10 -17 0
-10 -18 0
-9 -25 0
-9 -26 0
-10 -25 0
-10 -26 0
-9 -33 0
-9 -34 0
-10 -33 0
-10 -34 0
-9 -41 0
-9 -42 0
-10 -41 0
-10 -42 0
-9 -49 0
-9 -50 0
-10 -49 0
-10 -50 0
-9 -57 0
-9 -58 0
-10 -57 0
-10 -58 0
-17 -25 0
-17 -26 0
-18 -25 0
-18 -26 0
-17 -33 0
-17 -34 0
-18 -33 0
-18 -34 0
-17 -57 0
-17 -58 0
-18 -57 0
-18 -58 0
-25 -33 0
-25 -34 0
-26 -33 0
-26 -34 0
-25 -49 0
-25 -50 0
-26 -49 0
-26 -50 0
-25 -57 0
-25 -58 0
-26 -57 0
-26 -58 0
-33 -49 0
-33 -50 0
-34 -49 0
-34 -50 0
-33 -57 0
-33 -58 0
-34 -57 0
-34 -58 0
-41 -49 0
-41 -50 0
-42 -49 0
-42 -50 0
-49 -57 0
-49 -58 0
-50 -57 0
-50 -58 0
-1 -9 0
-1 -17 0
-1 -25 0
-1 -33 0
-1 -41 0
-1 -49 0
-1 -57 0
-9 -17 0
-9 -25 0
-9 -33 0
-9 -41 0
-9 -49 0
-9 -57 0
-17 -25 0
-17 -33 0
-17 -41 0
-17 -49 0
-17 -57 0
-25 -33 0
-25 -41 0
-25 -49 0
-25 -57 0
-33 -41 0
-33 -49 0
-33 -57 0
-41 -49 0
-41 -57 0
-49 -57 0
1 9 17 25 33 41 49 57 0
-2 -10 0
-2 -18 0
-2 -26 0
-2 -34 0
-2 -42 0
-2 -50 0
-2 -58 0
-10 -18 0
-10 -26 0
-10 -34 0
-10 -42 0
-10 -50 0
-10 -58 0
-18 -26 0
-18 -34 0
-18 -42 0
-18 -50 0
-18 -58 0
-26 -34 0
-26 -42 0
-26 -50 0
-26 -58 0
-34 -42 0
-34 -50 0
-34 -58 0
-42 -50 0
-42 -58 0
-50 -58 0
2 10 18 26 34 42 50 58 0
-1 -2 0
-9 -10 0
-17 -18 0
-25 -26 0
-33 -34 0
-41 -42 0
-49 -50 0
-57 -58 0
